num_features = 80;
num_usage_limits = 4;
num_plans = 4;
num_addons = 0;

features = ["appForIOS","appForAndroid","appForWindows","appForMac","appForLinux","appForWeb","syncAcrossDevices","notes","ad-free","tasks","tasksManagementView","addDueDatesToTasks","addRemindersToTasks","addNotificationsToTasks","customizeHomeWithTasksWidget","customizeHomeWithFilteredNotesWidget","connectWithPrimaryGoogleCalendar","assignTasksToOthers","trackOthersProgressOnTasks","connectWithMultipleGoogleCalendarAccounts","customizeHomeWithPinnedNotesWidget","customizeHomeWithScratchPadWidget","useBooleanTermsToRefineSearch","findContentByLocation","exportNotebooksAsPDFs","homeDashboard","richFormatting","webClipper","attachFilesToNotes","scanHadWrittenNotes","scanWhiteboards","scanReceipts","scanMore","recordAudioNotes","playAudioNotes","annotateImages","annotatePdfs","forwardEmailsIntoEvernote","createCustomTemplates","saveCustomTemplates","scanAndDigitalizeBusinessCardsToCreateContacts","addRemindersToNotes","searchNotes","getSearchSugestionsAsYourType","saveSearches","createOwnFilingSystem","connectWithGmail","customizeHomeWithMoreWidgets","customizeHomeWithBackgroundImages","accessNotesOffline","connectWithGoogleDrive","searchTextInsideImages","searchTextInsideHandwrittenNotes","searchTextInsideDocuments","searchTextInsidePDFs","versionHistoryOfNotes","restoreNotesFromOlderVersions","quicklySwitchBetweenAccounts","shareNotesWithPeople","shareNotebooksWithPeople","setPermissionsForEdittingNotes","setPermissionsForEdittingNotebooks","setPermissionsForViewingNotes","setPermissionsForViewingNotebooks","sendEmailsWithNotesCopies","advancedPdfExportControls","connectWithSlack","connectWithSalesforce","connectWithTeams","dataNotForSale","twoStepVerification","forumSupport","applyInNoteEncryption","supportTickets","sharedSpaces","centralizedAccountAdministration","teamOnboardingProgram","activityHistory","dedicatedSuccessManager","connectWithOutlook"];
usage_limits = ["syncDevicesLimit","maximumNoteSize","globalMonthlyUploadLimit","monthlyUploadLimitByUser"];
plans = ["FREE","PERSONAL","PROFESIONAL","TEAMS"];
addons = [];

plans_prices = [0,7.99,9.99,14.99];
addons_prices = [];

linked_features = array2d(USAGE_LIMITS, FEATURES, [
    % syncDevicesLimit
    0,0,0,0,0,0,1,0,0,0,0,0,0,0,0,0,0,0,0,0,0,0,0,0,0,0,0,0,0,0,0,0,0,0,0,0,0,0,0,0,0,0,0,0,0,0,0,0,0,0,0,0,0,0,0,0,0,0,0,0,0,0,0,0,0,0,0,0,0,0,0,0,0,0,0,0,0,0,0,0,
    % maximumNoteSize
    0,0,0,0,0,0,0,1,0,0,0,0,0,0,0,0,0,0,0,0,0,0,0,0,0,0,0,0,0,0,0,0,0,0,0,0,0,0,0,0,0,0,0,0,0,0,0,0,0,0,0,0,0,0,0,0,0,0,0,0,0,0,0,0,0,0,0,0,0,0,0,0,0,0,0,0,0,0,0,0,
    % globalMonthlyUploadLimit
    0,0,0,0,0,0,0,0,0,0,0,0,0,0,0,0,0,0,0,0,0,0,0,0,0,0,0,0,0,0,0,0,0,0,0,0,0,0,0,0,0,0,0,0,0,0,0,0,0,0,0,0,0,0,0,0,0,0,0,0,0,0,0,0,0,0,0,0,0,0,0,0,0,0,0,0,0,0,0,0,
    % monthlyUploadLimitByUser
    0,0,0,0,0,0,0,0,0,0,0,0,0,0,0,0,0,0,0,0,0,0,0,0,0,0,0,0,0,0,0,0,0,0,0,0,0,0,0,0,0,0,0,0,0,0,0,0,0,0,0,0,0,0,0,0,0,0,0,0,0,0,0,0,0,0,0,0,0,0,0,0,0,0,0,0,0,0,0,0
]);

plans_features = array2d(PLANS, FEATURES, [
    % FREE
    1,1,1,1,1,1,1,1,1,1,0,0,0,0,0,0,0,0,0,0,0,0,0,0,0,1,1,1,1,1,1,1,1,1,1,0,0,0,0,0,0,1,1,1,1,1,1,0,0,0,1,0,0,0,0,0,0,0,1,1,1,1,1,1,0,0,0,0,0,1,1,1,0,0,0,0,0,0,0,0,
    % PERSONAL
    1,1,1,1,1,1,1,1,1,1,1,1,1,1,1,1,1,0,0,0,0,0,0,0,0,1,1,1,1,1,1,1,1,1,1,1,1,1,1,1,1,1,1,1,1,1,1,1,1,1,1,1,1,1,1,1,1,1,1,1,1,1,1,1,1,0,0,0,0,1,1,1,1,1,0,0,0,0,0,0,
    % PROFESIONAL
    1,1,1,1,1,1,1,1,1,1,1,1,1,1,1,1,1,1,1,1,1,1,1,1,1,1,1,1,1,1,1,1,1,1,1,1,1,1,1,1,1,1,1,1,1,1,1,1,1,1,1,1,1,1,1,1,1,1,1,1,1,1,1,1,1,1,1,1,1,1,1,1,1,1,0,0,0,0,0,0,
    % TEAMS
    1,1,1,1,1,1,1,1,1,1,1,1,1,1,1,1,1,1,1,1,1,1,1,1,1,1,1,1,1,1,1,1,1,1,1,1,1,1,1,1,1,1,1,1,1,1,1,1,1,1,1,1,1,1,1,1,1,1,1,1,1,1,1,1,1,1,1,1,1,1,1,1,1,1,1,1,1,1,1,1
]);
plans_usage_limits = array2d(PLANS, USAGE_LIMITS, [
    % FREE
    2,25,60,0,
    % PERSONAL
    1000000,200,10240,0,
    % PROFESIONAL
    1000000,200,20480,0,
    % TEAMS
    1000000,200,20480,2048
]);

addons_features = array2d(ADDONS, FEATURES, [
]);
addons_usage_limits = array2d(ADDONS, USAGE_LIMITS, [
]);
addons_usage_limits_extensions = array2d(ADDONS, USAGE_LIMITS, [
]);
addons_available_for = array2d(ADDONS, PLANS, [
]);
addons_depends_on = array2d(ADDONS, ADDONS, [
]);
